\* Maximizacion_Beneficios_Publicidad *\
Maximize
Beneficio_Total: 50000 Oferta_('A',_'1') + 33000 Oferta_('AA',_'1')
 + 47000 Oferta_('AB',_'1') + 27000 Oferta_('AC',_'1')
 + 19000 Oferta_('AD',_'1') + 51000 Oferta_('AE',_'1')
 + 39000 Oferta_('AF',_'1') + 29000 Oferta_('AG',_'1')
 + 21000 Oferta_('AH',_'1') + 37000 Oferta_('AI',_'1')
 + 23000 Oferta_('AJ',_'1') + 43000 Oferta_('AK',_'1')
 + 31000 Oferta_('AL',_'1') + 49000 Oferta_('AM',_'1')
 + 26000 Oferta_('AN',_'1') + 17000 Oferta_('AO',_'1')
 + 44000 Oferta_('AP',_'1') + 34000 Oferta_('AQ',_'1')
 + 24000 Oferta_('AR',_'1') + 46000 Oferta_('AS',_'1')
 + 36000 Oferta_('AT',_'1') + 20000 Oferta_('AU',_'1')
 + 16000 Oferta_('AV',_'1') + 41000 Oferta_('AW',_'1')
 + 100000 Oferta_('B',_'1') + 120000 Oferta_('B',_'2')
 + 100000 Oferta_('C',_'1') + 80000 Oferta_('D',_'1') + 5000 Oferta_('E',_'1')
 + 40000 Oferta_('F',_'1') + 90000 Oferta_('G',_'1') + 30000 Oferta_('H',_'1')
 + 25000 Oferta_('I',_'1') + 45000 Oferta_('J',_'1') + 60000 Oferta_('K',_'1')
 + 55000 Oferta_('L',_'1') + 20000 Oferta_('M',_'1') + 15000 Oferta_('N',_'1')
 + 12000 Oferta_('O',_'1') + 50000 Oferta_('P',_'1') + 40000 Oferta_('Q',_'1')
 + 60000 Oferta_('R',_'1') + 30000 Oferta_('S',_'1') + 22000 Oferta_('T',_'1')
 + 48000 Oferta_('U',_'1') + 52000 Oferta_('V',_'1') + 38000 Oferta_('W',_'1')
 + 28000 Oferta_('X',_'1') + 18000 Oferta_('Y',_'1') + 42000 Oferta_('Z',_'1')
Subject To
_C1: Oferta_('B',_'1') + Oferta_('B',_'2') <= 1
_C2: Oferta_('A',_'1') + Oferta_('D',_'1') <= 1
_C3: 30 Oferta_('A',_'1') + 16 Oferta_('AA',_'1') + 23 Oferta_('AB',_'1')
 + 13 Oferta_('AC',_'1') + 9 Oferta_('AD',_'1') + 25 Oferta_('AE',_'1')
 + 19 Oferta_('AF',_'1') + 14 Oferta_('AG',_'1') + 10 Oferta_('AH',_'1')
 + 18 Oferta_('AI',_'1') + 11 Oferta_('AJ',_'1') + 21 Oferta_('AK',_'1')
 + 15 Oferta_('AL',_'1') + 24 Oferta_('AM',_'1') + 13 Oferta_('AN',_'1')
 + 8 Oferta_('AO',_'1') + 22 Oferta_('AP',_'1') + 17 Oferta_('AQ',_'1')
 + 12 Oferta_('AR',_'1') + 23 Oferta_('AS',_'1') + 18 Oferta_('AT',_'1')
 + 10 Oferta_('AU',_'1') + 8 Oferta_('AV',_'1') + 20 Oferta_('AW',_'1')
 + 80 Oferta_('B',_'1') + 120 Oferta_('B',_'2') + 75 Oferta_('C',_'1')
 + 50 Oferta_('D',_'1') + 2 Oferta_('E',_'1') + 20 Oferta_('F',_'1')
 + 100 Oferta_('G',_'1') + 15 Oferta_('H',_'1') + 12 Oferta_('I',_'1')
 + 25 Oferta_('J',_'1') + 35 Oferta_('K',_'1') + 30 Oferta_('L',_'1')
 + 10 Oferta_('M',_'1') + 8 Oferta_('N',_'1') + 6 Oferta_('O',_'1')
 + 28 Oferta_('P',_'1') + 20 Oferta_('Q',_'1') + 30 Oferta_('R',_'1')
 + 15 Oferta_('S',_'1') + 10 Oferta_('T',_'1') + 24 Oferta_('U',_'1')
 + 26 Oferta_('V',_'1') + 19 Oferta_('W',_'1') + 14 Oferta_('X',_'1')
 + 9 Oferta_('Y',_'1') + 21 Oferta_('Z',_'1') <= 200
Binaries
Oferta_('A',_'1')
Oferta_('AA',_'1')
Oferta_('AB',_'1')
Oferta_('AC',_'1')
Oferta_('AD',_'1')
Oferta_('AE',_'1')
Oferta_('AF',_'1')
Oferta_('AG',_'1')
Oferta_('AH',_'1')
Oferta_('AI',_'1')
Oferta_('AJ',_'1')
Oferta_('AK',_'1')
Oferta_('AL',_'1')
Oferta_('AM',_'1')
Oferta_('AN',_'1')
Oferta_('AO',_'1')
Oferta_('AP',_'1')
Oferta_('AQ',_'1')
Oferta_('AR',_'1')
Oferta_('AS',_'1')
Oferta_('AT',_'1')
Oferta_('AU',_'1')
Oferta_('AV',_'1')
Oferta_('AW',_'1')
Oferta_('B',_'1')
Oferta_('B',_'2')
Oferta_('C',_'1')
Oferta_('D',_'1')
Oferta_('E',_'1')
Oferta_('F',_'1')
Oferta_('G',_'1')
Oferta_('H',_'1')
Oferta_('I',_'1')
Oferta_('J',_'1')
Oferta_('K',_'1')
Oferta_('L',_'1')
Oferta_('M',_'1')
Oferta_('N',_'1')
Oferta_('O',_'1')
Oferta_('P',_'1')
Oferta_('Q',_'1')
Oferta_('R',_'1')
Oferta_('S',_'1')
Oferta_('T',_'1')
Oferta_('U',_'1')
Oferta_('V',_'1')
Oferta_('W',_'1')
Oferta_('X',_'1')
Oferta_('Y',_'1')
Oferta_('Z',_'1')
End
